p cnf 211 564
c weights 1.0 1.0 2.718281828459045 0.36787944117144233 2.718281828459045 0.36787944117144233 2.718281828459045 0.36787944117144233 2.718281828459045 0.36787944117144233 2.718281828459045 0.36787944117144233 1.0 1.0 2.718281828459045 0.36787944117144233 2.718281828459045 0.36787944117144233 2.718281828459045 0.36787944117144233 2.718281828459045 0.36787944117144233 1.0 1.0 2.718281828459045 0.36787944117144233 2.718281828459045 0.36787944117144233 2.718281828459045 0.36787944117144233 2.718281828459045 0.36787944117144233 2.718281828459045 0.36787944117144233 1.0 1.0 2.718281828459045 0.36787944117144233 2.718281828459045 0.36787944117144233 2.718281828459045 0.36787944117144233 2.718281828459045 0.36787944117144233 2.718281828459045 0.36787944117144233 1.0 1.0 2.718281828459045 0.36787944117144233 2.718281828459045 0.36787944117144233 2.718281828459045 0.36787944117144233 2.718281828459045 0.36787944117144233 2.718281828459045 0.36787944117144233 1.0 1.0 2.718281828459045 0.36787944117144233 2.718281828459045 0.36787944117144233 2.718281828459045 0.36787944117144233 2.718281828459045 0.36787944117144233 2.718281828459045 0.36787944117144233 1.0 1.0 2.718281828459045 0.36787944117144233 2.718281828459045 0.36787944117144233 2.718281828459045 0.36787944117144233 2.718281828459045 0.36787944117144233 1.0 1.0 2.718281828459045 0.36787944117144233 2.718281828459045 0.36787944117144233 1.0 1.0 2.718281828459045 0.36787944117144233 2.718281828459045 0.36787944117144233 2.718281828459045 0.36787944117144233 2.718281828459045 0.36787944117144233 2.718281828459045 0.36787944117144233 2.718281828459045 0.36787944117144233 1.0 1.0 2.718281828459045 0.36787944117144233 2.718281828459045 0.36787944117144233 1.0 1.0 2.718281828459045 0.36787944117144233 2.718281828459045 0.36787944117144233 1.0 1.0 2.718281828459045 0.36787944117144233 2.718281828459045 0.36787944117144233 2.718281828459045 0.36787944117144233 1.0 1.0 2.718281828459045 0.36787944117144233 2.718281828459045 0.36787944117144233 2.718281828459045 0.36787944117144233 2.718281828459045 0.36787944117144233 2.718281828459045 0.36787944117144233 1.0 1.0 2.718281828459045 0.36787944117144233 2.718281828459045 0.36787944117144233 1.0 1.0 2.718281828459045 0.36787944117144233 2.718281828459045 0.36787944117144233 2.718281828459045 0.36787944117144233 2.718281828459045 0.36787944117144233 2.718281828459045 0.36787944117144233 1.0 1.0 2.718281828459045 0.36787944117144233 1.0 1.0 2.718281828459045 0.36787944117144233 2.718281828459045 0.36787944117144233 2.718281828459045 0.36787944117144233 2.718281828459045 0.36787944117144233 1.0 1.0 2.718281828459045 0.36787944117144233 2.718281828459045 0.36787944117144233 2.718281828459045 0.36787944117144233 2.718281828459045 0.36787944117144233 2.718281828459045 0.36787944117144233 1.0 1.0 2.718281828459045 0.36787944117144233 1.0 1.0 2.718281828459045 0.36787944117144233 2.718281828459045 0.36787944117144233 2.718281828459045 0.36787944117144233 1.0 1.0 2.718281828459045 0.36787944117144233 2.718281828459045 0.36787944117144233 2.718281828459045 0.36787944117144233 1.0 1.0 2.718281828459045 0.36787944117144233 1.0 1.0 2.718281828459045 0.36787944117144233 2.718281828459045 0.36787944117144233 2.718281828459045 0.36787944117144233 1.0 1.0 2.718281828459045 0.36787944117144233 1.0 1.0 2.718281828459045 0.36787944117144233 2.718281828459045 0.36787944117144233 2.718281828459045 0.36787944117144233 1.0 1.0 1.0 1.0 2.718281828459045 0.36787944117144233 2.718281828459045 0.36787944117144233 2.718281828459045 0.36787944117144233 2.718281828459045 0.36787944117144233 1.0 1.0 1.0 1.0 2.718281828459045 0.36787944117144233 2.718281828459045 0.36787944117144233 1.0 1.0 2.718281828459045 0.36787944117144233 2.718281828459045 0.36787944117144233 1.0 1.0 1.0 1.0 2.718281828459045 0.36787944117144233 2.718281828459045 0.36787944117144233 1.0 1.0 2.718281828459045 0.36787944117144233 2.718281828459045 0.36787944117144233 2.718281828459045 0.36787944117144233 2.718281828459045 0.36787944117144233 1.0 1.0 2.718281828459045 0.36787944117144233 2.718281828459045 0.36787944117144233 2.718281828459045 0.36787944117144233 1.0 1.0 2.718281828459045 0.36787944117144233 2.718281828459045 0.36787944117144233 2.718281828459045 0.36787944117144233 1.0 1.0 2.718281828459045 0.36787944117144233 1.0 1.0 2.718281828459045 0.36787944117144233 1.0 1.0 2.718281828459045 0.36787944117144233 2.718281828459045 0.36787944117144233 2.718281828459045 0.36787944117144233 1.0 1.0 2.718281828459045 0.36787944117144233 2.718281828459045 0.36787944117144233 1.0 1.0 2.718281828459045 0.36787944117144233 2.718281828459045 0.36787944117144233 2.718281828459045 0.36787944117144233 2.718281828459045 0.36787944117144233 1.0 1.0 2.718281828459045 0.36787944117144233 1.0 1.0 1.0 1.0 2.718281828459045 0.36787944117144233 2.718281828459045 0.36787944117144233 2.718281828459045 0.36787944117144233 2.718281828459045 0.36787944117144233 1.0 1.0 2.718281828459045 0.36787944117144233 2.718281828459045 0.36787944117144233 1.0 1.0 2.718281828459045 0.36787944117144233 2.718281828459045 0.36787944117144233 1.0 1.0 2.718281828459045 0.36787944117144233 1.0 1.0 1.0 1.0 2.718281828459045 0.36787944117144233 2.718281828459045 0.36787944117144233 1.0 1.0 2.718281828459045 0.36787944117144233 2.718281828459045 0.36787944117144233 1.0 1.0 2.718281828459045 0.36787944117144233 1.0 1.0 1.0 1.0 2.718281828459045 0.36787944117144233 1.0 1.0 2.718281828459045 0.36787944117144233 2.718281828459045 0.36787944117144233 2.718281828459045 0.36787944117144233 2.718281828459045 0.36787944117144233 1.0 1.0 1.0 1.0 1.0 1.0 1.0 1.0 2.718281828459045 0.36787944117144233 1.0 1.0 2.718281828459045 0.36787944117144233 1.0 1.0 1.0 1.0 1.0 1.0 2.718281828459045 0.36787944117144233 1.0 1.0 2.718281828459045 0.36787944117144233 1.0 1.0 2.718281828459045 0.36787944117144233 1.0 1.0 1.0 1.0 1.0 1.0 1.0 1.0 1.0 1.0 1.0 1.0 1.0 1.0
2 1 54 0
2 -1 -54 0
-2 1 -54 0
-2 -1 54 0
3 1 91 0
3 -1 -91 0
-3 1 -91 0
-3 -1 91 0
4 1 95 0
4 -1 -95 0
-4 1 -95 0
-4 -1 95 0
5 1 128 0
5 -1 -128 0
-5 1 -128 0
-5 -1 128 0
6 1 205 0
6 -1 -205 0
-6 1 -205 0
-6 -1 205 0
8 7 165 0
8 -7 -165 0
-8 7 -165 0
-8 -7 165 0
9 7 171 0
9 -7 -171 0
-9 7 -171 0
-9 -7 171 0
10 7 185 0
10 -7 -185 0
-10 7 -185 0
-10 -7 185 0
11 7 197 0
11 -7 -197 0
-11 7 -197 0
-11 -7 197 0
13 12 54 0
13 -12 -54 0
-13 12 -54 0
-13 -12 54 0
14 12 107 0
14 -12 -107 0
-14 12 -107 0
-14 -12 107 0
15 12 118 0
15 -12 -118 0
-15 12 -118 0
-15 -12 118 0
16 12 173 0
16 -12 -173 0
-16 12 -173 0
-16 -12 173 0
17 12 197 0
17 -12 -197 0
-17 12 -197 0
-17 -12 197 0
19 18 44 0
19 -18 -44 0
-19 18 -44 0
-19 -18 44 0
20 18 128 0
20 -18 -128 0
-20 18 -128 0
-20 -18 128 0
21 18 133 0
21 -18 -133 0
-21 18 -133 0
-21 -18 133 0
22 18 168 0
22 -18 -168 0
-22 18 -168 0
-22 -18 168 0
23 18 205 0
23 -18 -205 0
-23 18 -205 0
-23 -18 205 0
25 24 95 0
25 -24 -95 0
-25 24 -95 0
-25 -24 95 0
26 24 101 0
26 -24 -101 0
-26 24 -101 0
-26 -24 101 0
27 24 128 0
27 -24 -128 0
-27 24 -128 0
-27 -24 128 0
28 24 198 0
28 -24 -198 0
-28 24 -198 0
-28 -24 198 0
29 24 206 0
29 -24 -206 0
-29 24 -206 0
-29 -24 206 0
31 30 117 0
31 -30 -117 0
-31 30 -117 0
-31 -30 117 0
32 30 157 0
32 -30 -157 0
-32 30 -157 0
-32 -30 157 0
33 30 174 0
33 -30 -174 0
-33 30 -174 0
-33 -30 174 0
34 30 177 0
34 -30 -177 0
-34 30 -177 0
-34 -30 177 0
35 30 197 0
35 -30 -197 0
-35 30 -197 0
-35 -30 197 0
37 36 78 0
37 -36 -78 0
-37 36 -78 0
-37 -36 78 0
38 36 160 0
38 -36 -160 0
-38 36 -160 0
-38 -36 160 0
39 36 201 0
39 -36 -201 0
-39 36 -201 0
-39 -36 201 0
40 36 206 0
40 -36 -206 0
-40 36 -206 0
-40 -36 206 0
42 41 105 0
42 -41 -105 0
-42 41 -105 0
-42 -41 105 0
43 41 121 0
43 -41 -121 0
-43 41 -121 0
-43 -41 121 0
45 44 57 0
45 -44 -57 0
-45 44 -57 0
-45 -44 57 0
46 44 105 0
46 -44 -105 0
-46 44 -105 0
-46 -44 105 0
47 44 112 0
47 -44 -112 0
-47 44 -112 0
-47 -44 112 0
48 44 143 0
48 -44 -143 0
-48 44 -143 0
-48 -44 143 0
49 44 173 0
49 -44 -173 0
-49 44 -173 0
-49 -44 173 0
50 44 191 0
50 -44 -191 0
-50 44 -191 0
-50 -44 191 0
52 51 125 0
52 -51 -125 0
-52 51 -125 0
-52 -51 125 0
53 51 211 0
53 -51 -211 0
-53 51 -211 0
-53 -51 211 0
55 54 152 0
55 -54 -152 0
-55 54 -152 0
-55 -54 152 0
56 54 205 0
56 -54 -205 0
-56 54 -205 0
-56 -54 205 0
58 57 159 0
58 -57 -159 0
-58 57 -159 0
-58 -57 159 0
59 57 191 0
59 -57 -191 0
-59 57 -191 0
-59 -57 191 0
60 57 198 0
60 -57 -198 0
-60 57 -198 0
-60 -57 198 0
62 61 105 0
62 -61 -105 0
-62 61 -105 0
-62 -61 105 0
63 61 173 0
63 -61 -173 0
-63 61 -173 0
-63 -61 173 0
64 61 174 0
64 -61 -174 0
-64 61 -174 0
-64 -61 174 0
65 61 191 0
65 -61 -191 0
-65 61 -191 0
-65 -61 191 0
66 61 201 0
66 -61 -201 0
-66 61 -201 0
-66 -61 201 0
68 67 117 0
68 -67 -117 0
-68 67 -117 0
-68 -67 117 0
69 67 143 0
69 -67 -143 0
-69 67 -143 0
-69 -67 143 0
71 70 89 0
71 -70 -89 0
-71 70 -89 0
-71 -70 89 0
72 70 95 0
72 -70 -95 0
-72 70 -95 0
-72 -70 95 0
73 70 128 0
73 -70 -128 0
-73 70 -128 0
-73 -70 128 0
74 70 152 0
74 -70 -152 0
-74 70 -152 0
-74 -70 152 0
75 70 185 0
75 -70 -185 0
-75 70 -185 0
-75 -70 185 0
77 76 128 0
77 -76 -128 0
-77 76 -128 0
-77 -76 128 0
79 78 83 0
79 -78 -83 0
-79 78 -83 0
-79 -78 83 0
80 78 174 0
80 -78 -174 0
-80 78 -174 0
-80 -78 174 0
81 78 199 0
81 -78 -199 0
-81 78 -199 0
-81 -78 199 0
82 78 206 0
82 -78 -206 0
-82 78 -206 0
-82 -78 206 0
84 83 152 0
84 -83 -152 0
-84 83 -152 0
-84 -83 152 0
85 83 160 0
85 -83 -160 0
-85 83 -160 0
-85 -83 160 0
86 83 174 0
86 -83 -174 0
-86 83 -174 0
-86 -83 174 0
87 83 185 0
87 -83 -185 0
-87 83 -185 0
-87 -83 185 0
88 83 197 0
88 -83 -197 0
-88 83 -197 0
-88 -83 197 0
90 89 143 0
90 -89 -143 0
-90 89 -143 0
-90 -89 143 0
92 91 125 0
92 -91 -125 0
-92 91 -125 0
-92 -91 125 0
93 91 174 0
93 -91 -174 0
-93 91 -174 0
-93 -91 174 0
94 91 207 0
94 -91 -207 0
-94 91 -207 0
-94 -91 207 0
96 95 121 0
96 -95 -121 0
-96 95 -121 0
-96 -95 121 0
97 95 165 0
97 -95 -165 0
-97 95 -165 0
-97 -95 165 0
98 95 182 0
98 -95 -182 0
-98 95 -182 0
-98 -95 182 0
100 99 145 0
100 -99 -145 0
-100 99 -145 0
-100 -99 145 0
102 101 128 0
102 -101 -128 0
-102 101 -128 0
-102 -101 128 0
103 101 141 0
103 -101 -141 0
-103 101 -141 0
-103 -101 141 0
104 101 192 0
104 -101 -192 0
-104 101 -192 0
-104 -101 192 0
106 105 171 0
106 -105 -171 0
-106 105 -171 0
-106 -105 171 0
108 107 133 0
108 -107 -133 0
-108 107 -133 0
-108 -107 133 0
109 107 152 0
109 -107 -152 0
-109 107 -152 0
-109 -107 152 0
110 107 177 0
110 -107 -177 0
-110 107 -177 0
-110 -107 177 0
113 112 143 0
113 -112 -143 0
-113 112 -143 0
-113 -112 143 0
114 112 157 0
114 -112 -157 0
-114 112 -157 0
-114 -112 157 0
115 112 191 0
115 -112 -191 0
-115 112 -191 0
-115 -112 191 0
116 112 210 0
116 -112 -210 0
-116 112 -210 0
-116 -112 210 0
119 118 125 0
119 -118 -125 0
-119 118 -125 0
-119 -118 125 0
120 118 193 0
120 -118 -193 0
-120 118 -193 0
-120 -118 193 0
122 121 157 0
122 -121 -157 0
-122 121 -157 0
-122 -121 157 0
123 121 159 0
123 -121 -159 0
-123 121 -159 0
-123 -121 159 0
126 125 143 0
126 -125 -143 0
-126 125 -143 0
-126 -125 143 0
127 125 182 0
127 -125 -182 0
-127 125 -182 0
-127 -125 182 0
129 128 141 0
129 -128 -141 0
-129 128 -141 0
-129 -128 141 0
130 128 197 0
130 -128 -197 0
-130 128 -197 0
-130 -128 197 0
131 128 205 0
131 -128 -205 0
-131 128 -205 0
-131 -128 205 0
132 128 211 0
132 -128 -211 0
-132 128 -211 0
-132 -128 211 0
134 133 201 0
134 -133 -201 0
-134 133 -201 0
-134 -133 201 0
135 133 205 0
135 -133 -205 0
-135 133 -205 0
-135 -133 205 0
136 133 209 0
136 -133 -209 0
-136 133 -209 0
-136 -133 209 0
138 137 149 0
138 -137 -149 0
-138 137 -149 0
-138 -137 149 0
139 137 185 0
139 -137 -185 0
-139 137 -185 0
-139 -137 185 0
140 137 205 0
140 -137 -205 0
-140 137 -205 0
-140 -137 205 0
142 141 206 0
142 -141 -206 0
-142 141 -206 0
-142 -141 206 0
144 143 165 0
144 -143 -165 0
-144 143 -165 0
-144 -143 165 0
146 145 168 0
146 -145 -168 0
-146 145 -168 0
-146 -145 168 0
147 145 192 0
147 -145 -192 0
-147 145 -192 0
-147 -145 192 0
148 145 206 0
148 -145 -206 0
-148 145 -206 0
-148 -145 206 0
150 149 185 0
150 -149 -185 0
-150 149 -185 0
-150 -149 185 0
151 149 199 0
151 -149 -199 0
-151 149 -199 0
-151 -149 199 0
153 152 185 0
153 -152 -185 0
-153 152 -185 0
-153 -152 185 0
154 152 197 0
154 -152 -197 0
-154 152 -197 0
-154 -152 197 0
155 152 199 0
155 -152 -199 0
-155 152 -199 0
-155 -152 199 0
156 152 210 0
156 -152 -210 0
-156 152 -210 0
-156 -152 210 0
158 157 182 0
158 -157 -182 0
-158 157 -182 0
-158 -157 182 0
161 160 173 0
161 -160 -173 0
-161 160 -173 0
-161 -160 173 0
162 160 177 0
162 -160 -177 0
-162 160 -177 0
-162 -160 177 0
163 160 182 0
163 -160 -182 0
-163 160 -182 0
-163 -160 182 0
164 160 191 0
164 -160 -191 0
-164 160 -191 0
-164 -160 191 0
166 165 168 0
166 -165 -168 0
-166 165 -168 0
-166 -165 168 0
167 165 208 0
167 -165 -208 0
-167 165 -208 0
-167 -165 208 0
169 168 199 0
169 -168 -199 0
-169 168 -199 0
-169 -168 199 0
170 168 201 0
170 -168 -201 0
-170 168 -201 0
-170 -168 201 0
172 171 197 0
172 -171 -197 0
-172 171 -197 0
-172 -171 197 0
175 174 197 0
175 -174 -197 0
-175 174 -197 0
-175 -174 197 0
176 174 210 0
176 -174 -210 0
-176 174 -210 0
-176 -174 210 0
178 177 206 0
178 -177 -206 0
-178 177 -206 0
-178 -177 206 0
179 177 210 0
179 -177 -210 0
-179 177 -210 0
-179 -177 210 0
181 180 192 0
181 -180 -192 0
-181 180 -192 0
-181 -180 192 0
184 183 185 0
184 -183 -185 0
-184 183 -185 0
-184 -183 185 0
186 185 190 0
186 -185 -190 0
-186 185 -190 0
-186 -185 190 0
187 185 197 0
187 -185 -197 0
-187 185 -197 0
-187 -185 197 0
188 185 201 0
188 -185 -201 0
-188 185 -201 0
-188 -185 201 0
189 185 205 0
189 -185 -205 0
-189 185 -205 0
-189 -185 205 0
194 193 209 0
194 -193 -209 0
-194 193 -209 0
-194 -193 209 0
196 195 210 0
196 -195 -210 0
-196 195 -210 0
-196 -195 210 0
200 199 207 0
200 -199 -207 0
-200 199 -207 0
-200 -199 207 0
202 201 203 0
202 -201 -203 0
-202 201 -203 0
-202 -201 203 0
204 203 206 0
204 -203 -206 0
-204 203 -206 0
-204 -203 206 0
